p tw 190 203
1 2
2 103
3 14
4 5
5 6
5 8
6 7
7 29
8 9
9 10
10 11
11 12
12 13
12 16
13 15
14 25
15 29
16 17
17 18
18 19
19 20
20 21
21 22
22 23
23 24
24 26
25 36
26 27
27 28
28 100
29 30
30 31
31 32
32 71
33 34
34 35
35 37
36 47
37 38
38 39
39 40
39 42
40 41
41 67
42 43
43 44
44 45
45 46
46 48
46 50
47 58
48 49
49 67
50 51
51 52
52 53
53 54
54 55
54 57
55 56
56 67
57 59
58 69
59 60
60 61
61 62
62 63
62 65
63 64
64 67
65 66
66 100
67 68
68 70
69 80
70 71
71 72
72 73
72 85
73 74
74 75
75 76
76 77
77 78
78 79
79 81
80 91
81 82
82 83
83 84
84 85
85 86
86 87
87 88
88 89
89 90
90 92
91 102
92 93
93 94
94 95
95 96
96 97
97 116
98 99
99 100
100 101
102 104
103 114
103 136
104 105
105 106
106 107
107 108
108 109
109 110
110 111
111 112
112 113
113 115
114 125
115 116
116 117
117 118
118 119
118 98
119 120
120 121
121 122
122 123
123 124
124 126
125 158
126 127
127 128
128 129
129 130
130 131
131 132
132 133
133 134
134 135
135 137
136 147
137 138
138 139
139 140
140 141
141 142
142 143
143 144
143 33
144 145
145 146
146 148
147 158
148 149
149 150
150 151
151 152
152 153
153 154
154 155
155 156
156 157
157 159
158 169
159 160
160 161
160 171
161 162
162 163
163 164
164 165
165 166
166 167
167 168
168 170
169 180
170 171
171 172
172 173
172 71
173 174
174 175
175 176
176 177
177 178
177 181
178 179
179 29
180 3
181 182
182 183
183 184
184 185
185 186
185 188
186 187
187 29
188 189
189 190
190 4
